; benchmark generated from python API
(set-info :status unknown)
(declare-fun S_2 () Real)
(declare-fun S_4 () Real)
(declare-fun C () Real)
(declare-fun S_3 () Real)
(declare-fun S_1 () Real)
(declare-fun A_0 () Real)
(declare-fun L_0 () Real)
(declare-fun A_4 () Real)
(declare-fun Q_4 () Real)
(declare-fun S_0 () Real)
(declare-fun A_1 () Real)
(declare-fun L0 () Real)
(declare-fun A_3 () Real)
(declare-fun A_2 () Real)
(assert
 (let (($x37 (>= L0 0.0)))
 (let (($x820 (>= C 5.0)))
 (let ((?x997 (* (- 1.0) A_0)))
 (let ((?x523 (* (- 1.0) Q_4)))
 (let ((?x531 (* (- 1.0) A_3)))
 (let ((?x803 (* (- 2.0) C)))
 (let (($x15596 (not (<= 0.0 (+ ?x803 A_4 ?x531 ?x523 S_4 ?x997 L_0)))))
 (let (($x13963 (<= 0.0 (+ ?x523 (* (- 4.0) C) (* (- 1.0) A_1) A_4 S_4 ?x997 L_0))))
 (let (($x13964 (not $x13963)))
 (let (($x13791 (<= 0.0 (+ C ?x531 A_2))))
 (let (($x13897 (<= (+ (* (- 1.0) C) A_4 ?x531) 0.0)))
 (let (($x11075 (not $x13897)))
 (let (($x15851 (not (<= 0.0 (+ C A_4 ?x531 ?x523)))))
 (let (($x13893 (<= (+ (* (- 1.0) C) (* (- 1.0) A_1) A_2) 0.0)))
 (let (($x15827 (<= 0.0 (+ (* (- 3.0) C) A_4 ?x531 (* (- 1.0) S_0) ?x523 S_4))))
 (let (($x15828 (not $x15827)))
 (let (($x13762 (<= (+ ?x803 (* (- 1.0) A_1) A_3) 0.0)))
 (let (($x13458 (not (<= 0.0 (+ ?x523 (* (- 1.0) C) (* (- 1.0) A_1) A_4)))))
 (let (($x15587 (<= 0.0 (+ (* (- 1.0) C) A_4 ?x531 ?x523 S_4 (* (- 1.0) S_2)))))
 (let (($x15588 (not $x15587)))
 (let (($x13278 (not $x13893)))
 (let (($x11597 (not (<= 0.0 (+ A_4 ?x531 ?x523 S_4 (* (- 1.0) S_3))))))
 (let (($x15606 (not (<= 0.0 (+ ?x803 A_4 ?x531 ?x523 S_4 (* (- 1.0) S_1))))))
 (let (($x14596 (<= (+ Q_4 C (* (- 1.0) A_4) L_0 S_3) 0.0)))
 (let (($x978 (= Q_4 0.0)))
 (let (($x14550 (not $x13791)))
 (let (($x4078 (not (<= 0.0 (+ ?x523 (* (- 1.0) A_2) A_4)))))
 (let (($x14115 (<= 0.0 (+ ?x523 (* (- 3.0) C) (* (- 1.0) A_2) A_4 S_4 ?x997 L_0))))
 (let (($x14116 (not $x14115)))
 (let (($x14004 (<= (+ Q_4 (* 2.0 C) (* (- 1.0) A_4) L_0 S_2) 0.0)))
 (let (($x14961 (not (<= 0.0 (+ (* 2.0 C) ?x523)))))
 (let (($x14054 (<= (+ ?x803 (* (- 1.0) A_2) A_4) 0.0)))
 (let (($x14822 (not (<= 0.0 (+ ?x803 (* (- 1.0) S_0) ?x523 S_4)))))
 (let ((?x908 (* (- 1.0) S_0)))
 (let ((?x535 (* (- 1.0) A_2)))
 (let ((?x1169 (* (- 4.0) C)))
 (let (($x18976 (or $x13893 (not (<= 0.0 (+ ?x523 ?x1169 ?x535 ?x908 A_4 S_4))) $x14550 $x14822)))
 (let (($x14630 (not (<= 0.0 (+ L_0 (* (- 1.0) C) ?x523 S_4 ?x997)))))
 (let (($x14243 (not (<= 0.0 (+ ?x523 ?x803 ?x535 A_4 S_4 (* (- 1.0) S_2))))))
 (let (($x2025 (not (<= 0.0 (+ ?x523 S_4 (* (- 1.0) S_2))))))
 (let (($x14248 (<= 0.0 (+ ?x523 (* (- 1.0) C) ?x535 A_4 S_4 (* (- 1.0) S_3)))))
 (let (($x14302 (not $x14248)))
 (let (($x14106 (<= 0.0 (+ ?x523 (* (- 3.0) C) ?x535 A_4 S_4 (* (- 1.0) S_1)))))
 (let (($x14107 (not $x14106)))
 (let (($x14788 (not (<= 0.0 (+ (* (- 1.0) C) ?x523 S_4 (* (- 1.0) S_1))))))
 (let (($x14645 (not (<= 0.0 (+ C ?x523 S_4 (* (- 1.0) S_3))))))
 (let (($x15145 (or $x978 (<= (+ Q_4 (* 3.0 C) (* (- 1.0) A_4) L_0 S_1) 0.0))))
 (let (($x14215 (not $x13762)))
 (let (($x14202 (<= 0.0 (+ ?x523 ?x1169 (* (- 1.0) A_1) A_4 S_4 (* (- 1.0) S_1)))))
 (let (($x14203 (not $x14202)))
 (let (($x13666 (<= 0.0 (+ ?x523 (* (- 5.0) C) (* (- 1.0) A_1) ?x908 A_4 S_4))))
 (let (($x13473 (not $x13666)))
 (let ((?x262 (* (- 1.0) S_2)))
 (let ((?x539 (* (- 1.0) A_1)))
 (let ((?x614 (* (- 3.0) C)))
 (let (($x13957 (not (<= 0.0 (+ ?x523 ?x614 ?x539 A_4 S_4 ?x262)))))
 (let (($x15168 (or $x978 (<= (+ Q_4 (* 4.0 C) (* (- 1.0) A_4) S_0 L_0) 0.0))))
 (let (($x27181 (or $x13278 (not (<= 0.0 (+ ?x523 ?x803 ?x539 A_4 S_4 (* (- 1.0) S_3)))) $x14215 $x14645)))
 (let (($x2814 (or $x978 (not (<= Q_4 0.0)))))
 (let (($x120 (>= S_4 S_3)))
 (let (($x36 (>= L_0 L0)))
 (let (($x111 (>= S_1 S_0)))
 (let (($x114 (>= S_2 S_1)))
 (let (($x117 (>= S_3 S_2)))
 (let (($x123 (>= A_2 A_1)))
 (let (($x124 (>= A_3 A_2)))
 (let (($x125 (>= A_4 A_3)))
 (and (<= (+ A_0 (* (- 1.0) L_0)) S_4) $x125 $x124 $x123 $x117 $x114 $x111 $x36 $x120 $x2814 (<= (+ ?x803 S_4 (* (- 1.0) S_3)) 0.0) (<= (+ ?x1169 S_4 (* (- 1.0) S_1)) 0.0) $x27181 (or $x13278 $x13964 $x14215 $x14630) (<= (+ ?x1169 S_4 ?x997 L_0) 0.0) (<= (+ (* (- 5.0) C) ?x908 S_4) 0.0) $x15168 (or $x14004 (<= (+ C ?x531 L_0 Q_4 S_2) 0.0)) (<= (+ (* 2.0 C) (* (- 1.0) S_4) S_1) 0.0) (or $x13791 $x13893 $x13897 $x14822) (or $x2025 $x13278 $x13897 $x13957) (or $x11075 $x13278 $x13957 $x14215) (or $x13278 $x13473 $x13897 $x14822) (or $x13278 $x13473 $x14215 $x14822) (or $x13278 $x13897 $x14203 $x14788) (or $x13278 $x14203 $x14215 $x14788) (or $x13458 $x13897 $x14054 $x14822) (or $x13897 $x14596) (or $x13791 $x14004) $x15145 (or $x13278 $x13762 $x13897 $x14645) (or $x13278 $x13897 $x13964 $x14630) (or $x13278 $x13458 $x13897 $x14961) (or $x13893 $x13897 $x14302 $x14645) (or $x13893 $x13897 $x14107 $x14788) (or $x11075 $x13893 $x14107 $x14550) (or $x11075 $x13893 $x14302 $x14550) (or $x11075 $x13762 $x14243 $x14550) (or $x11075 $x13893 $x14215 $x14243) (or $x4078 $x13458 $x13897 (not $x14054)) (or $x2025 $x13893 $x13897 $x14243) (or $x13897 $x13964 $x14116 $x14630) $x18976 (or $x11075 $x13458 $x13791 $x15596) (or $x13893 $x13897 $x14054 $x14961) (or $x978 $x14004) (or $x11075 $x13893 $x14116 $x14550) (or $x4078 $x11075 $x13458 $x14550) (or $x978 $x14596) (or $x11075 $x13278 $x13762 $x15606) (or $x11075 $x13791 $x13893 $x15606) (or $x11075 $x11597 $x13791 $x13893) (or $x11075 $x11597 $x13278 $x13762) (or $x11075 $x13278 $x13762 $x15588) (or $x11075 $x13278 $x13458 $x15851) (or $x11075 $x13278 $x13964 $x15596) (or $x11075 $x13791 $x13893 $x15588) (or $x11075 $x13458 $x13791 $x15828) (or $x11075 $x13762 $x13791 $x15828) (or $x11075 $x13791 $x13893 $x15851) (or $x11075 $x13791 $x13964 $x15596) $x820 $x37 (<= (+ L_0 S_0 ?x997) 0.0) (not (>= (+ L_0 ?x539 S_4) 0.0)) (<= (+ (* 2.0 C) S_0 (* (- 1.0) S_3)) 0.0) (<= (+ (* 3.0 C) S_0 (* (- 1.0) S_4)) 0.0) (<= (+ C (* (- 1.0) S_4) S_2) 0.0) (<= (+ ?x803 S_2 ?x997 L_0) 0.0) (<= (+ ?x614 ?x908 S_2) 0.0) (<= (+ ?x1169 ?x908 S_3) 0.0) (<= (+ (* (- 1.0) C) ?x997 L_0 S_1) 0.0) (<= (+ ?x803 ?x908 S_1) 0.0) (<= (+ C S_0 ?x262) 0.0) (<= (+ C S_1 (* (- 1.0) S_3)) 0.0) (<= (+ Q_4 (* (- 1.0) A_4) L_0 S_4) 0.0) (<= (+ ?x803 S_2 (* (- 1.0) S_1)) 0.0) (<= (+ L_0 ?x614 ?x997 S_3) 0.0) (<= (+ ?x803 ?x262 S_3) 0.0) (<= (+ ?x614 (* (- 1.0) S_1) S_3) 0.0) (<= (+ ?x614 S_4 ?x262) 0.0))))))))))))))))))))))))))))))))))))))))))))))))))))))))))))))))))))))
(check-sat)
